c   #vars: 115   #clauses: 530   #literals: 1446
c 
p cnf 115 530
-1 -2 0
-3 -4 0
-5 -6 0
22 -29 82 83 0
-8 -9 0
-10 -11 0
-12 -13 0
-14 -15 0
7 -64 95 96 0
62 63 110 111 0
-16 -17 0
-18 -19 0
-20 -21 0
10 11 57 -86 0
-23 -24 0
-25 -26 0
-27 -28 0
-29 -30 0
-31 -32 0
-33 -34 0
-35 -36 0
-37 -38 0
-39 -40 0
23 24 114 115 0
25 26 114 115 0
-41 -42 0
-43 -44 0
-45 -46 0
-47 -48 0
-49 -50 0
-51 -52 0
-53 -54 0
20 21 86 87 0
20 21 114 115 0
-55 -56 0
-72 86 87 90 0
10 11 27 28 0
1 2 27 28 0
-58 -59 0
-60 -61 0
-62 -63 0
-64 -65 0
35 36 62 63 0
-66 -67 0
-68 -69 0
-70 -71 0
-72 -73 0
-74 -75 0
-76 -77 0
-78 -79 0
-80 -81 0
-82 -83 0
-84 -85 0
-86 -87 0
-88 -89 0
29 30 -66 99 0
14 15 39 40 0
7 -43 95 96 0
-91 -92 0
-93 -94 0
-95 -96 0
1 2 91 92 0
-97 -98 0
80 81 102 -103 0
-100 -101 0
39 40 -97 107 0
5 6 18 19 0
-105 -106 0
20 21 -93 112 0
-108 -109 0
3 4 66 67 0
-110 -111 0
27 28 -70 113 0
72 73 108 109 0
8 9 114 115 0
-114 -115 0
1 2 16 17 0
-1 -16 0
-2 -17 0
16 17 55 56 0
-1 -27 0
-2 -28 0
16 17 88 89 0
-1 -35 0
-2 -36 0
-1 -51 0
-2 -52 0
64 65 78 79 0
-1 -60 0
-2 -61 0
45 46 78 79 0
-1 -74 0
-2 -75 0
-1 -91 0
-2 -92 0
-1 -110 0
-2 -111 0
-3 -8 0
-4 -9 0
12 13 51 52 0
-3 -25 0
-4 -26 0
14 15 72 73 0
-27 45 46 104 0
-3 -60 0
-4 -61 0
-3 -66 0
-4 -67 0
-20 82 83 112 0
-3 -93 0
-4 -94 0
47 48 -102 103 0
27 28 -45 104 0
-5 -10 0
-6 -11 0
-5 -18 0
-6 -19 0
37 38 -102 103 0
-5 -31 0
-6 -32 0
-39 97 98 107 0
-5 -88 0
-6 -89 0
7 43 44 -95 0
47 48 72 73 0
7 43 44 -64 0
35 36 72 73 0
7 -43 64 65 0
-16 22 82 83 0
-7 -44 0
35 36 82 83 0
-7 -65 0
1 2 60 61 0
-7 -96 0
51 52 55 56 0
-45 84 85 104 0
10 11 64 65 0
-8 -20 0
-9 -21 0
10 11 25 26 0
-8 -39 0
-9 -40 0
5 6 31 32 0
-8 -51 0
-9 -52 0
49 50 76 77 0
-8 -68 0
-9 -69 0
-8 -100 0
-9 -101 0
3 4 8 9 0
-8 -114 0
-9 -115 0
53 54 110 111 0
-10 -25 0
-11 -26 0
-10 -27 0
-11 -28 0
8 9 20 21 0
-10 -35 0
-11 -36 0
37 38 -47 103 0
-33 86 87 90 0
-11 -57 0
60 61 80 81 0
-10 -64 0
-11 -65 0
-12 -31 0
-13 -32 0
23 24 95 96 0
-12 -41 0
-13 -42 0
41 42 58 59 0
-12 -51 0
-13 -52 0
8 9 68 69 0
23 24 66 67 0
-12 -72 0
-13 -73 0
23 24 47 48 0
-12 -80 0
-13 -81 0
29 30 76 77 0
-14 -39 0
-15 -40 0
-37 -81 102 103 0
-14 -72 0
-15 -73 0
-14 -74 0
-15 -75 0
55 56 100 101 0
-14 -88 0
-15 -89 0
20 21 35 36 0
-14 -105 0
-15 -106 0
41 42 45 46 0
68 69 105 106 0
-27 84 85 104 0
62 63 88 89 0
10 11 -20 57 0
-17 -22 0
-16 -37 0
-17 -38 0
82 83 91 92 0
-16 -55 0
-17 -56 0
12 13 80 81 0
7 64 65 -95 0
33 34 70 71 0
-16 -66 0
-17 -67 0
-16 -72 0
-17 -73 0
91 92 108 109 0
-16 -88 0
-17 -89 0
27 28 80 81 0
31 32 82 83 0
16 17 22 -29 0
22 29 30 -82 0
47 48 97 98 0
-16 22 29 30 0
1 2 74 75 0
-18 -25 0
-19 -26 0
18 19 25 26 0
-18 -64 0
-19 -65 0
35 36 53 54 0
-18 -78 0
-19 -79 0
8 9 39 40 0
-20 -35 0
-21 -36 0
33 34 -86 90 0
-21 -57 0
74 75 84 85 0
-20 -80 0
-21 -81 0
14 15 88 89 0
-20 -86 0
-21 -87 0
43 44 97 98 0
27 28 -31 113 0
-21 -112 0
8 9 100 101 0
-20 -114 0
-21 -115 0
39 40 93 94 0
-20 57 86 87 0
-22 -30 0
20 21 80 81 0
-10 57 86 87 0
-22 -83 0
3 4 25 26 0
-23 -27 0
-24 -28 0
-23 -33 0
-24 -34 0
43 44 51 52 0
-23 -47 0
-24 -48 0
-23 -66 0
-24 -67 0
62 63 100 101 0
-23 -95 0
-24 -96 0
25 26 70 71 0
-23 -114 0
-24 -115 0
-25 -70 0
-26 -71 0
53 54 58 59 0
-25 -114 0
-26 -115 0
1 2 51 52 0
-27 -68 0
-28 -69 0
-27 -80 0
-28 -81 0
-28 -104 0
82 83 -93 112 0
-28 -113 0
-47 -81 102 103 0
-29 -31 0
-30 -32 0
20 21 57 -86 0
-29 -39 0
-30 -40 0
-29 -76 0
-30 -77 0
31 32 37 38 0
-54 80 81 102 0
-30 -99 0
31 32 35 36 0
-31 -35 0
-32 -36 0
33 34 41 42 0
-31 -37 0
-32 -38 0
-31 -58 0
-32 -59 0
88 89 97 98 0
-31 -82 0
-32 -83 0
41 42 95 96 0
-32 -113 0
3 4 93 94 0
-33 -41 0
-34 -42 0
-64 97 98 107 0
-33 -70 0
-34 -71 0
72 73 76 77 0
29 30 -45 99 0
-34 -90 0
10 11 35 36 0
-33 -105 0
-34 -106 0
53 54 60 61 0
-35 -53 0
-36 -54 0
43 44 68 69 0
-35 -62 0
-36 -63 0
41 42 55 56 0
-35 -72 0
-36 -73 0
97 98 105 106 0
-35 -82 0
-36 -83 0
-37 47 48 103 0
-37 -86 0
-38 -87 0
18 19 64 65 0
-37 -91 0
-38 -92 0
-38 -103 0
12 13 41 42 0
-39 -49 0
-40 -50 0
74 75 95 96 0
-39 -78 0
-40 -79 0
-39 -93 0
-40 -94 0
49 50 114 115 0
20 21 -82 112 0
-40 -107 0
45 46 -84 104 0
-45 66 67 99 0
8 9 51 52 0
-41 -45 0
-42 -46 0
3 4 60 61 0
-41 -53 0
-42 -54 0
82 83 84 85 0
-41 -55 0
-42 -56 0
-37 -54 102 103 0
-41 -58 0
-42 -59 0
-41 -95 0
-42 -96 0
33 34 105 106 0
-41 -100 0
-42 -101 0
-47 -54 102 103 0
-43 -51 0
-44 -52 0
31 32 -70 113 0
-43 -68 0
-44 -69 0
-33 72 73 90 0
-43 -97 0
-44 -98 0
-10 20 21 57 0
-45 -78 0
-46 -79 0
27 28 68 69 0
53 54 102 -103 0
-46 -99 0
-46 -104 0
74 75 82 83 0
-47 -60 0
-48 -61 0
29 30 31 32 0
-47 -72 0
-48 -73 0
72 73 -86 90 0
-47 -97 0
-48 -98 0
-48 -103 0
-49 -76 0
-50 -77 0
37 38 91 92 0
-49 -108 0
-50 -109 0
41 42 53 54 0
-49 -114 0
-50 -115 0
12 13 72 73 0
-51 -55 0
-52 -56 0
-53 -58 0
-54 -59 0
60 61 70 71 0
-53 -60 0
-54 -61 0
1 2 110 111 0
-53 -102 0
39 40 -64 107 0
39 40 49 50 0
-53 -110 0
-54 -111 0
-55 -84 0
-56 -85 0
91 92 105 106 0
-55 -88 0
-56 -89 0
14 15 105 106 0
-55 -100 0
-56 -101 0
-55 -108 0
-56 -109 0
23 24 27 28 0
33 34 -72 90 0
-57 -87 0
-58 -64 0
-59 -65 0
23 24 33 34 0
14 15 74 75 0
-60 -70 0
-61 -71 0
58 59 64 65 0
-60 -80 0
-61 -81 0
-29 66 67 99 0
-62 -88 0
-63 -89 0
31 32 58 59 0
-62 -100 0
-63 -101 0
5 6 10 11 0
-62 -110 0
-63 -111 0
-64 -78 0
-65 -79 0
76 77 97 98 0
-82 93 94 112 0
-65 -107 0
47 48 60 61 0
53 54 -81 102 0
-67 -99 0
-68 -105 0
-69 -106 0
16 17 37 38 0
16 17 22 -82 0
55 56 108 109 0
-71 -113 0
-72 -76 0
-73 -77 0
55 56 84 85 0
45 46 -66 99 0
-73 -90 0
-72 -108 0
-73 -109 0
80 81 114 115 0
18 19 78 79 0
-74 -82 0
-75 -83 0
41 42 100 101 0
-74 -84 0
-75 -85 0
29 30 39 40 0
-74 -95 0
-75 -96 0
16 17 66 67 0
-76 -97 0
-77 -98 0
-78 -110 0
-79 -111 0
-80 -102 0
64 65 -97 107 0
-80 -114 0
-81 -115 0
84 85 86 87 0
-82 -84 0
-83 -85 0
86 87 93 94 0
-82 -91 0
-83 -92 0
1 2 35 36 0
-31 70 71 113 0
-83 -112 0
37 38 86 87 0
-84 -86 0
-85 -87 0
-85 -104 0
16 17 72 73 0
-29 45 46 99 0
-87 -90 0
5 6 88 89 0
-86 -93 0
-87 -94 0
91 92 95 96 0
-88 -97 0
-89 -98 0
-27 31 32 113 0
-91 -95 0
-92 -96 0
49 50 108 109 0
-91 -105 0
-92 -106 0
78 79 110 111 0
-91 -108 0
-92 -109 0
12 13 31 32 0
-27 70 71 113 0
-94 -112 0
-97 -105 0
-98 -106 0
39 40 78 79 0
-20 93 94 112 0
-98 -107 0
55 56 88 89 0
27 28 -84 104 0
-39 64 65 107 0
